100 8
293 137
530 573
932 264
401 109
784 450
697 632
511 458
841 850
658 515
364 900
576 596
477 788
155 815
266 808
369 139
720 606
526 228
351 797
782 919
466 944
900 931
244 829
614 365
154 774
448 915
608 738
594 601
736 855
213 762
845 403
432 241
514 775
927 335
483 212
919 852
655 630
510 172
497 846
918 726
290 859
824 416
549 779
259 858
221 732
565 543
419 742
615 731
674 916
544 248
504 142
525 796
821 690
133 748
114 870
728 794
459 961
355 106
502 542
516 875
348 246
987 193
914 726
761 795
228 572
741 505
368 179
597 384
480 734
261 806
506 882
478 902
495 873
166 836
394 908
108 785
535 139
427 834
168 824
354 191
135 762
614 524
285 852
764 851
794 896
549 449
923 248
144 670
618 522
732 448
760 404
444 834
195 760
920 862
456 832
733 316
457 896
372 202
780 461
909 433
636 754
